outputs/c208.txt.out
filename: C208
Vehicles: 25, Capacity: 700
Total customers : 101
No of routes: 13
Route #1: 93 5 10 11 9 25
Route #2: 28 26 23 17 13
Route #3: 18 19 15 16 14 12 8 21
Route #4: 20 22 24 27 30 29 6 32 33 38 39 36 34
Route #5: 31 35 37
Route #6: 75 2 1 99 100 97 92 94 95 98 7 3 4 89 91 88 86 84 83 82 78 77 87
Route #7: 85 81
Route #8: 76 71 70 73 79 80 96
Route #9: 67 63 62 74 72 61 64 66 69 68 41 42 43 48
Route #10: 47 45 51 50 52
Route #11: 46 44 40 57
Route #12: 55 54 56 58 60 59
Route #13: 65 53 49 90
Cost 1257
